8 -37 12 -40 -49 0
-8 12 -49 22 -40 -3 -49 0
10 -28 22 7 -49 0
-40 -37 -36 -49 -49 0
-32 -26 11 -46 -8 -49 0
-32 3 43 46 -49 23 -49 0
-32 3 -28 -26 11 43 -49 -40 -49 0
-28 38 -26 -49 15 -40 -49 0
-49 0
38 -26 49 19 -40 24 -37 49 0
-26 8 15 -40 -37 49 0
7 -24 -8 12 49 22 -40 49 0
-26 -8 15 49 -40 -38 49 0
-29 38 -26 -24 27 49 0
-8 44 -10 49 0
49 0
0
